Route #1: 48 40 46 38
Route #2: 24 23 27 22 12 47 31 4 39 37 26 20 21 9
Route #3: 34 30 16 14 28 43 5
Route #4: 36 13 2 44 7 8 33 41 17 3 11 29 35 10 25 1 42
Route #5: 19 6 32
Route #6: 45 18 15
Route #7: 
cost 1691.3702262248103
